;  time  = {}
;  terms = 19
;  score = -1
;  stdout= {}
(set-logic QF_FP)
(declare-const x0 (_ FloatingPoint 8 24))
(declare-const x1 (_ FloatingPoint 8 24))
(declare-const x2 (_ FloatingPoint 8 24))
(declare-const x3 (_ FloatingPoint 8 24))
(assert (not (fp.isNaN x0)))
(assert (not (fp.isInfinite x0)))
(assert (not (fp.isZero x0)))
(assert (not (fp.isNaN x1)))
(assert (not (fp.isInfinite x1)))
(assert (not (fp.isZero x1)))
(assert (not (fp.isNaN x2)))
(assert (not (fp.isInfinite x2)))
(assert (not (fp.isZero x2)))
(assert (not (fp.isNaN x3)))
(assert (not (fp.isInfinite x3)))
(assert (not (fp.isZero x3)))
(assert (fp.eq (fp.neg (fp.abs (fp.div RNE x3 x2))) (fp.add RNE (fp.min (fp.sqrt RNE x2) (fp.roundToIntegral RNE x1)) (fp.min (fp.mul RNE x0 x3) (fp.min x2 x3)))))(check-sat)